NAME CFLP
ROWS
 N  OBJ
 E  demand_1
 E  demand_2
 E  demand_3
 E  demand_4
 E  demand_5
 E  demand_6
 E  demand_7
 E  demand_8
 E  demand_9
 E  demand_10
 E  demand_11
 E  demand_12
 E  demand_13
 E  demand_14
 E  demand_15
 E  demand_16
 E  demand_17
 E  demand_18
 E  demand_19
 E  demand_20
 E  demand_21
 E  demand_22
 E  demand_23
 E  demand_24
 E  demand_25
 E  demand_26
 L  c_disjunction_1_diajunct_1
 L  c_disjunction_1_disjunct_2
 E  R28     
 L  c_disjunction_2_diajunct_1
 L  c_disjunction_2_disjunct_2
 E  R31     
 L  c_disjunction_3_diajunct_1
 L  c_disjunction_3_disjunct_2
 E  R34     
 L  c_disjunction_4_diajunct_1
 L  c_disjunction_4_disjunct_2
 E  R37     
 L  c_disjunction_5_diajunct_1
 L  c_disjunction_5_disjunct_2
 E  R40     
 L  c_disjunction_6_diajunct_1
 L  c_disjunction_6_disjunct_2
 E  R43     
 L  c_disjunction_7_diajunct_1
 L  c_disjunction_7_disjunct_2
 E  R46     
 L  c_disjunction_8_diajunct_1
 L  c_disjunction_8_disjunct_2
 E  R49     
 L  c_disjunction_9_diajunct_1
 L  c_disjunction_9_disjunct_2
 E  R52     
 L  c_disjunction_10_diajunct_1
 L  c_disjunction_10_disjunct_2
 E  R55     
 L  c_disjunction_11_diajunct_1
 L  c_disjunction_11_disjunct_2
 E  R58     
 L  c_disjunction_12_diajunct_1
 L  c_disjunction_12_disjunct_2
 E  R61     
 L  c_disjunction_13_diajunct_1
 L  c_disjunction_13_disjunct_2
 E  R64     
 L  c_disjunction_14_diajunct_1
 L  c_disjunction_14_disjunct_2
 E  R67     
 L  c_disjunction_15_diajunct_1
 L  c_disjunction_15_disjunct_2
 E  R70     
 L  c_disjunction_16_diajunct_1
 L  c_disjunction_16_disjunct_2
 E  R73     
 L  c_disjunction_17_diajunct_1
 L  c_disjunction_17_disjunct_2
 E  R76     
 L  c_disjunction_18_diajunct_1
 L  c_disjunction_18_disjunct_2
 E  R79     
 L  c_disjunction_19_diajunct_1
 L  c_disjunction_19_disjunct_2
 E  R82     
 L  c_disjunction_20_diajunct_1
 L  c_disjunction_20_disjunct_2
 E  R85     
 L  c_disjunction_21_diajunct_1
 L  c_disjunction_21_disjunct_2
 E  R88     
 L  c_disjunction_22_diajunct_1
 L  c_disjunction_22_disjunct_2
 E  R91     
 L  c_disjunction_23_diajunct_1
 L  c_disjunction_23_disjunct_2
 E  R94     
 L  c_disjunction_24_diajunct_1
 L  c_disjunction_24_disjunct_2
 E  R97     
 L  c_disjunction_25_diajunct_1
 L  c_disjunction_25_disjunct_2
 E  R100    
 L  c_disjunction_26_diajunct_1
 L  c_disjunction_26_disjunct_2
 E  R103    
COLUMNS
    MARKER    'MARKER'                 'INTORG'
    ind_disjunction_1_disjunct_1  OBJ       1185
    ind_disjunction_1_disjunct_1  c_disjunction_1_diajunct_1  -117
    ind_disjunction_1_disjunct_1  R28       1
    ind_disjunction_2_disjunct_1  OBJ       1185
    ind_disjunction_2_disjunct_1  c_disjunction_2_diajunct_1  -117
    ind_disjunction_2_disjunct_1  R31       1
    ind_disjunction_3_disjunct_1  OBJ       1185
    ind_disjunction_3_disjunct_1  c_disjunction_3_diajunct_1  -117
    ind_disjunction_3_disjunct_1  R34       1
    ind_disjunction_4_disjunct_1  OBJ       1185
    ind_disjunction_4_disjunct_1  c_disjunction_4_diajunct_1  -117
    ind_disjunction_4_disjunct_1  R37       1
    ind_disjunction_5_disjunct_1  OBJ       1185
    ind_disjunction_5_disjunct_1  c_disjunction_5_diajunct_1  -117
    ind_disjunction_5_disjunct_1  R40       1
    ind_disjunction_6_disjunct_1  OBJ       1185
    ind_disjunction_6_disjunct_1  c_disjunction_6_diajunct_1  -117
    ind_disjunction_6_disjunct_1  R43       1
    ind_disjunction_7_disjunct_1  OBJ       1185
    ind_disjunction_7_disjunct_1  c_disjunction_7_diajunct_1  -117
    ind_disjunction_7_disjunct_1  R46       1
    ind_disjunction_8_disjunct_1  OBJ       1185
    ind_disjunction_8_disjunct_1  c_disjunction_8_diajunct_1  -117
    ind_disjunction_8_disjunct_1  R49       1
    ind_disjunction_9_disjunct_1  OBJ       1185
    ind_disjunction_9_disjunct_1  c_disjunction_9_diajunct_1  -117
    ind_disjunction_9_disjunct_1  R52       1
    ind_disjunction_10_disjunct_1  OBJ       1185
    ind_disjunction_10_disjunct_1  c_disjunction_10_diajunct_1  -117
    ind_disjunction_10_disjunct_1  R55       1
    ind_disjunction_11_disjunct_1  OBJ       1185
    ind_disjunction_11_disjunct_1  c_disjunction_11_diajunct_1  -117
    ind_disjunction_11_disjunct_1  R58       1
    ind_disjunction_12_disjunct_1  OBJ       1185
    ind_disjunction_12_disjunct_1  c_disjunction_12_diajunct_1  -117
    ind_disjunction_12_disjunct_1  R61       1
    ind_disjunction_13_disjunct_1  OBJ       1185
    ind_disjunction_13_disjunct_1  c_disjunction_13_diajunct_1  -117
    ind_disjunction_13_disjunct_1  R64       1
    ind_disjunction_14_disjunct_1  OBJ       1185
    ind_disjunction_14_disjunct_1  c_disjunction_14_diajunct_1  -117
    ind_disjunction_14_disjunct_1  R67       1
    ind_disjunction_15_disjunct_1  OBJ       1185
    ind_disjunction_15_disjunct_1  c_disjunction_15_diajunct_1  -117
    ind_disjunction_15_disjunct_1  R70       1
    ind_disjunction_16_disjunct_1  OBJ       1185
    ind_disjunction_16_disjunct_1  c_disjunction_16_diajunct_1  -117
    ind_disjunction_16_disjunct_1  R73       1
    ind_disjunction_17_disjunct_1  OBJ       1185
    ind_disjunction_17_disjunct_1  c_disjunction_17_diajunct_1  -117
    ind_disjunction_17_disjunct_1  R76       1
    ind_disjunction_18_disjunct_1  OBJ       1185
    ind_disjunction_18_disjunct_1  c_disjunction_18_diajunct_1  -117
    ind_disjunction_18_disjunct_1  R79       1
    ind_disjunction_19_disjunct_1  OBJ       1185
    ind_disjunction_19_disjunct_1  c_disjunction_19_diajunct_1  -117
    ind_disjunction_19_disjunct_1  R82       1
    ind_disjunction_20_disjunct_1  OBJ       1185
    ind_disjunction_20_disjunct_1  c_disjunction_20_diajunct_1  -117
    ind_disjunction_20_disjunct_1  R85       1
    ind_disjunction_21_disjunct_1  OBJ       1185
    ind_disjunction_21_disjunct_1  c_disjunction_21_diajunct_1  -117
    ind_disjunction_21_disjunct_1  R88       1
    ind_disjunction_22_disjunct_1  OBJ       1185
    ind_disjunction_22_disjunct_1  c_disjunction_22_diajunct_1  -117
    ind_disjunction_22_disjunct_1  R91       1
    ind_disjunction_23_disjunct_1  OBJ       1185
    ind_disjunction_23_disjunct_1  c_disjunction_23_diajunct_1  -117
    ind_disjunction_23_disjunct_1  R94       1
    ind_disjunction_24_disjunct_1  OBJ       1185
    ind_disjunction_24_disjunct_1  c_disjunction_24_diajunct_1  -117
    ind_disjunction_24_disjunct_1  R97       1
    ind_disjunction_25_disjunct_1  OBJ       1185
    ind_disjunction_25_disjunct_1  c_disjunction_25_diajunct_1  -117
    ind_disjunction_25_disjunct_1  R100      1
    ind_disjunction_26_disjunct_1  OBJ       1185
    ind_disjunction_26_disjunct_1  c_disjunction_26_diajunct_1  -117
    ind_disjunction_26_disjunct_1  R103      1
    ind_disjunction_1_disjunct_2  c_disjunction_1_disjunct_2  2
    ind_disjunction_1_disjunct_2  R28       1
    ind_disjunction_2_disjunct_2  c_disjunction_2_disjunct_2  2
    ind_disjunction_2_disjunct_2  R31       1
    ind_disjunction_3_disjunct_2  c_disjunction_3_disjunct_2  2
    ind_disjunction_3_disjunct_2  R34       1
    ind_disjunction_4_disjunct_2  c_disjunction_4_disjunct_2  1
    ind_disjunction_4_disjunct_2  R37       1
    ind_disjunction_5_disjunct_2  c_disjunction_5_disjunct_2  3
    ind_disjunction_5_disjunct_2  R40       1
    ind_disjunction_6_disjunct_2  c_disjunction_6_disjunct_2  3
    ind_disjunction_6_disjunct_2  R43       1
    ind_disjunction_7_disjunct_2  c_disjunction_7_disjunct_2  2
    ind_disjunction_7_disjunct_2  R46       1
    ind_disjunction_8_disjunct_2  c_disjunction_8_disjunct_2  1
    ind_disjunction_8_disjunct_2  R49       1
    ind_disjunction_9_disjunct_2  c_disjunction_9_disjunct_2  1
    ind_disjunction_9_disjunct_2  R52       1
    ind_disjunction_10_disjunct_2  c_disjunction_10_disjunct_2  1
    ind_disjunction_10_disjunct_2  R55       1
    ind_disjunction_11_disjunct_2  c_disjunction_11_disjunct_2  1
    ind_disjunction_11_disjunct_2  R58       1
    ind_disjunction_12_disjunct_2  c_disjunction_12_disjunct_2  1
    ind_disjunction_12_disjunct_2  R61       1
    ind_disjunction_13_disjunct_2  c_disjunction_13_disjunct_2  2
    ind_disjunction_13_disjunct_2  R64       1
    ind_disjunction_14_disjunct_2  c_disjunction_14_disjunct_2  2
    ind_disjunction_14_disjunct_2  R67       1
    ind_disjunction_15_disjunct_2  c_disjunction_15_disjunct_2  3
    ind_disjunction_15_disjunct_2  R70       1
    ind_disjunction_16_disjunct_2  c_disjunction_16_disjunct_2  3
    ind_disjunction_16_disjunct_2  R73       1
    ind_disjunction_17_disjunct_2  c_disjunction_17_disjunct_2  2
    ind_disjunction_17_disjunct_2  R76       1
    ind_disjunction_18_disjunct_2  c_disjunction_18_disjunct_2  1
    ind_disjunction_18_disjunct_2  R79       1
    ind_disjunction_19_disjunct_2  c_disjunction_19_disjunct_2  4
    ind_disjunction_19_disjunct_2  R82       1
    ind_disjunction_20_disjunct_2  c_disjunction_20_disjunct_2  2
    ind_disjunction_20_disjunct_2  R85       1
    ind_disjunction_21_disjunct_2  c_disjunction_21_disjunct_2  2
    ind_disjunction_21_disjunct_2  R88       1
    ind_disjunction_22_disjunct_2  c_disjunction_22_disjunct_2  2
    ind_disjunction_22_disjunct_2  R91       1
    ind_disjunction_23_disjunct_2  c_disjunction_23_disjunct_2  3
    ind_disjunction_23_disjunct_2  R94       1
    ind_disjunction_24_disjunct_2  c_disjunction_24_disjunct_2  2
    ind_disjunction_24_disjunct_2  R97       1
    ind_disjunction_25_disjunct_2  c_disjunction_25_disjunct_2  1
    ind_disjunction_25_disjunct_2  R100      1
    ind_disjunction_26_disjunct_2  c_disjunction_26_disjunct_2  3
    ind_disjunction_26_disjunct_2  R103      1
    x[1,1]    demand_1  1
    x[1,1]    c_disjunction_1_diajunct_1  28
    x[1,1]    c_disjunction_1_disjunct_2  1
    x[21,1]   OBJ       36
    x[21,1]   demand_1  1
    x[21,1]   c_disjunction_21_diajunct_1  28
    x[21,1]   c_disjunction_21_disjunct_2  1
    x[2,2]    demand_2  1
    x[2,2]    c_disjunction_2_diajunct_1  10
    x[2,2]    c_disjunction_2_disjunct_2  1
    x[16,2]   OBJ       6.8
    x[16,2]   demand_2  1
    x[16,2]   c_disjunction_16_diajunct_1  10
    x[16,2]   c_disjunction_16_disjunct_2  1
    x[3,3]    demand_3  1
    x[3,3]    c_disjunction_3_diajunct_1  12
    x[3,3]    c_disjunction_3_disjunct_2  1
    x[6,3]    OBJ       11.1
    x[6,3]    demand_3  1
    x[6,3]    c_disjunction_6_diajunct_1  12
    x[6,3]    c_disjunction_6_disjunct_2  1
    x[4,4]    demand_4  1
    x[4,4]    c_disjunction_4_diajunct_1  25
    x[4,4]    c_disjunction_4_disjunct_2  1
    x[19,4]   OBJ       28.3
    x[19,4]   demand_4  1
    x[19,4]   c_disjunction_19_diajunct_1  25
    x[19,4]   c_disjunction_19_disjunct_2  1
    x[5,5]    demand_5  1
    x[5,5]    c_disjunction_5_diajunct_1  17
    x[5,5]    c_disjunction_5_disjunct_2  1
    x[20,5]   OBJ       7.9
    x[20,5]   demand_5  1
    x[20,5]   c_disjunction_20_diajunct_1  17
    x[20,5]   c_disjunction_20_disjunct_2  1
    x[6,6]    demand_6  1
    x[6,6]    c_disjunction_6_diajunct_1  15
    x[6,6]    c_disjunction_6_disjunct_2  1
    x[3,6]    OBJ       13.9
    x[3,6]    demand_6  1
    x[3,6]    c_disjunction_3_diajunct_1  15
    x[3,6]    c_disjunction_3_disjunct_2  1
    x[7,7]    demand_7  1
    x[7,7]    c_disjunction_7_diajunct_1  7
    x[7,7]    c_disjunction_7_disjunct_2  1
    x[14,7]   OBJ       4.5
    x[14,7]   demand_7  1
    x[14,7]   c_disjunction_14_diajunct_1  7
    x[14,7]   c_disjunction_14_disjunct_2  1
    x[8,8]    demand_8  1
    x[8,8]    c_disjunction_8_diajunct_1  27
    x[8,8]    c_disjunction_8_disjunct_2  1
    x[6,8]    OBJ       65.3
    x[6,8]    demand_8  1
    x[6,8]    c_disjunction_6_diajunct_1  27
    x[6,8]    c_disjunction_6_disjunct_2  1
    x[9,9]    demand_9  1
    x[9,9]    c_disjunction_9_diajunct_1  12
    x[9,9]    c_disjunction_9_disjunct_2  1
    x[5,9]    OBJ       23
    x[5,9]    demand_9  1
    x[5,9]    c_disjunction_5_diajunct_1  12
    x[5,9]    c_disjunction_5_disjunct_2  1
    x[10,10]  demand_10  1
    x[10,10]  c_disjunction_10_diajunct_1  35
    x[10,10]  c_disjunction_10_disjunct_2  1
    x[16,10]  OBJ       58.5
    x[16,10]  demand_10  1
    x[16,10]  c_disjunction_16_diajunct_1  35
    x[16,10]  c_disjunction_16_disjunct_2  1
    x[11,11]  demand_11  1
    x[11,11]  c_disjunction_11_diajunct_1  19
    x[11,11]  c_disjunction_11_disjunct_2  1
    x[26,11]  OBJ       6.2
    x[26,11]  demand_11  1
    x[26,11]  c_disjunction_26_diajunct_1  19
    x[26,11]  c_disjunction_26_disjunct_2  1
    x[12,12]  demand_12  1
    x[12,12]  c_disjunction_12_diajunct_1  18
    x[12,12]  c_disjunction_12_disjunct_2  1
    x[19,12]  OBJ       26.2
    x[19,12]  demand_12  1
    x[19,12]  c_disjunction_19_diajunct_1  18
    x[19,12]  c_disjunction_19_disjunct_2  1
    x[13,13]  demand_13  1
    x[13,13]  c_disjunction_13_diajunct_1  21
    x[13,13]  c_disjunction_13_disjunct_2  1
    x[23,13]  OBJ       21.9
    x[23,13]  demand_13  1
    x[23,13]  c_disjunction_23_diajunct_1  21
    x[23,13]  c_disjunction_23_disjunct_2  1
    x[14,14]  demand_14  1
    x[14,14]  c_disjunction_14_diajunct_1  26
    x[14,14]  c_disjunction_14_disjunct_2  1
    x[7,14]   OBJ       16.8
    x[7,14]   demand_14  1
    x[7,14]   c_disjunction_7_diajunct_1  26
    x[7,14]   c_disjunction_7_disjunct_2  1
    x[15,15]  demand_15  1
    x[15,15]  c_disjunction_15_diajunct_1  21
    x[15,15]  c_disjunction_15_disjunct_2  1
    x[22,15]  OBJ       20
    x[22,15]  demand_15  1
    x[22,15]  c_disjunction_22_diajunct_1  21
    x[22,15]  c_disjunction_22_disjunct_2  1
    x[16,16]  demand_16  1
    x[16,16]  c_disjunction_16_diajunct_1  8
    x[16,16]  c_disjunction_16_disjunct_2  1
    x[2,16]   OBJ       5.4
    x[2,16]   demand_16  1
    x[2,16]   c_disjunction_2_diajunct_1  8
    x[2,16]   c_disjunction_2_disjunct_2  1
    x[17,17]  demand_17  1
    x[17,17]  c_disjunction_17_diajunct_1  17
    x[17,17]  c_disjunction_17_disjunct_2  1
    x[15,17]  OBJ       18.9
    x[15,17]  demand_17  1
    x[15,17]  c_disjunction_15_diajunct_1  17
    x[15,17]  c_disjunction_15_disjunct_2  1
    x[18,18]  demand_18  1
    x[18,18]  c_disjunction_18_diajunct_1  24
    x[18,18]  c_disjunction_18_disjunct_2  1
    x[23,18]  OBJ       26.5
    x[23,18]  demand_18  1
    x[23,18]  c_disjunction_23_diajunct_1  24
    x[23,18]  c_disjunction_23_disjunct_2  1
    x[19,19]  demand_19  1
    x[19,19]  c_disjunction_19_diajunct_1  25
    x[19,19]  c_disjunction_19_disjunct_2  1
    x[26,19]  OBJ       2.1
    x[26,19]  demand_19  1
    x[26,19]  c_disjunction_26_diajunct_1  25
    x[26,19]  c_disjunction_26_disjunct_2  1
    x[20,20]  demand_20  1
    x[20,20]  c_disjunction_20_diajunct_1  30
    x[20,20]  c_disjunction_20_disjunct_2  1
    x[5,20]   OBJ       13.9
    x[5,20]   demand_20  1
    x[5,20]   c_disjunction_5_diajunct_1  30
    x[5,20]   c_disjunction_5_disjunct_2  1
    x[21,21]  demand_21  1
    x[21,21]  c_disjunction_21_diajunct_1  27
    x[21,21]  c_disjunction_21_disjunct_2  1
    x[1,21]   OBJ       34.7
    x[1,21]   demand_21  1
    x[1,21]   c_disjunction_1_diajunct_1  27
    x[1,21]   c_disjunction_1_disjunct_2  1
    x[22,22]  demand_22  1
    x[22,22]  c_disjunction_22_diajunct_1  8
    x[22,22]  c_disjunction_22_disjunct_2  1
    x[15,22]  OBJ       7.6
    x[15,22]  demand_22  1
    x[15,22]  c_disjunction_15_diajunct_1  8
    x[15,22]  c_disjunction_15_disjunct_2  1
    x[23,23]  demand_23  1
    x[23,23]  c_disjunction_23_diajunct_1  14
    x[23,23]  c_disjunction_23_disjunct_2  1
    x[13,23]  OBJ       14.6
    x[13,23]  demand_23  1
    x[13,23]  c_disjunction_13_diajunct_1  14
    x[13,23]  c_disjunction_13_disjunct_2  1
    x[24,24]  demand_24  1
    x[24,24]  c_disjunction_24_diajunct_1  10
    x[24,24]  c_disjunction_24_disjunct_2  1
    x[17,24]  OBJ       13.6
    x[17,24]  demand_24  1
    x[17,24]  c_disjunction_17_diajunct_1  10
    x[17,24]  c_disjunction_17_disjunct_2  1
    x[25,25]  demand_25  1
    x[25,25]  c_disjunction_25_diajunct_1  28
    x[25,25]  c_disjunction_25_disjunct_2  1
    x[24,25]  OBJ       87.1
    x[24,25]  demand_25  1
    x[24,25]  c_disjunction_24_diajunct_1  28
    x[24,25]  c_disjunction_24_disjunct_2  1
    x[26,26]  demand_26  1
    x[26,26]  c_disjunction_26_diajunct_1  25
    x[26,26]  c_disjunction_26_disjunct_2  1
    x[19,26]  OBJ       2.1
    x[19,26]  demand_26  1
    x[19,26]  c_disjunction_19_diajunct_1  25
    x[19,26]  c_disjunction_19_disjunct_2  1
    MARKER    'MARKER'                 'INTEND'
RHS
    RHS1      demand_1  1
    RHS1      demand_2  1
    RHS1      demand_3  1
    RHS1      demand_4  1
    RHS1      demand_5  1
    RHS1      demand_6  1
    RHS1      demand_7  1
    RHS1      demand_8  1
    RHS1      demand_9  1
    RHS1      demand_10  1
    RHS1      demand_11  1
    RHS1      demand_12  1
    RHS1      demand_13  1
    RHS1      demand_14  1
    RHS1      demand_15  1
    RHS1      demand_16  1
    RHS1      demand_17  1
    RHS1      demand_18  1
    RHS1      demand_19  1
    RHS1      demand_20  1
    RHS1      demand_21  1
    RHS1      demand_22  1
    RHS1      demand_23  1
    RHS1      demand_24  1
    RHS1      demand_25  1
    RHS1      demand_26  1
    RHS1      c_disjunction_1_disjunct_2  2
    RHS1      R28       1
    RHS1      c_disjunction_2_disjunct_2  2
    RHS1      R31       1
    RHS1      c_disjunction_3_disjunct_2  2
    RHS1      R34       1
    RHS1      c_disjunction_4_disjunct_2  1
    RHS1      R37       1
    RHS1      c_disjunction_5_disjunct_2  3
    RHS1      R40       1
    RHS1      c_disjunction_6_disjunct_2  3
    RHS1      R43       1
    RHS1      c_disjunction_7_disjunct_2  2
    RHS1      R46       1
    RHS1      c_disjunction_8_disjunct_2  1
    RHS1      R49       1
    RHS1      c_disjunction_9_disjunct_2  1
    RHS1      R52       1
    RHS1      c_disjunction_10_disjunct_2  1
    RHS1      R55       1
    RHS1      c_disjunction_11_disjunct_2  1
    RHS1      R58       1
    RHS1      c_disjunction_12_disjunct_2  1
    RHS1      R61       1
    RHS1      c_disjunction_13_disjunct_2  2
    RHS1      R64       1
    RHS1      c_disjunction_14_disjunct_2  2
    RHS1      R67       1
    RHS1      c_disjunction_15_disjunct_2  3
    RHS1      R70       1
    RHS1      c_disjunction_16_disjunct_2  3
    RHS1      R73       1
    RHS1      c_disjunction_17_disjunct_2  2
    RHS1      R76       1
    RHS1      c_disjunction_18_disjunct_2  1
    RHS1      R79       1
    RHS1      c_disjunction_19_disjunct_2  4
    RHS1      R82       1
    RHS1      c_disjunction_20_disjunct_2  2
    RHS1      R85       1
    RHS1      c_disjunction_21_disjunct_2  2
    RHS1      R88       1
    RHS1      c_disjunction_22_disjunct_2  2
    RHS1      R91       1
    RHS1      c_disjunction_23_disjunct_2  3
    RHS1      R94       1
    RHS1      c_disjunction_24_disjunct_2  2
    RHS1      R97       1
    RHS1      c_disjunction_25_disjunct_2  1
    RHS1      R100      1
    RHS1      c_disjunction_26_disjunct_2  3
    RHS1      R103      1
BOUNDS
 BV BND1      ind_disjunction_1_disjunct_1
 BV BND1      ind_disjunction_2_disjunct_1
 BV BND1      ind_disjunction_3_disjunct_1
 BV BND1      ind_disjunction_4_disjunct_1
 BV BND1      ind_disjunction_5_disjunct_1
 BV BND1      ind_disjunction_6_disjunct_1
 BV BND1      ind_disjunction_7_disjunct_1
 BV BND1      ind_disjunction_8_disjunct_1
 BV BND1      ind_disjunction_9_disjunct_1
 BV BND1      ind_disjunction_10_disjunct_1
 BV BND1      ind_disjunction_11_disjunct_1
 BV BND1      ind_disjunction_12_disjunct_1
 BV BND1      ind_disjunction_13_disjunct_1
 BV BND1      ind_disjunction_14_disjunct_1
 BV BND1      ind_disjunction_15_disjunct_1
 BV BND1      ind_disjunction_16_disjunct_1
 BV BND1      ind_disjunction_17_disjunct_1
 BV BND1      ind_disjunction_18_disjunct_1
 BV BND1      ind_disjunction_19_disjunct_1
 BV BND1      ind_disjunction_20_disjunct_1
 BV BND1      ind_disjunction_21_disjunct_1
 BV BND1      ind_disjunction_22_disjunct_1
 BV BND1      ind_disjunction_23_disjunct_1
 BV BND1      ind_disjunction_24_disjunct_1
 BV BND1      ind_disjunction_25_disjunct_1
 BV BND1      ind_disjunction_26_disjunct_1
 BV BND1      ind_disjunction_1_disjunct_2
 BV BND1      ind_disjunction_2_disjunct_2
 BV BND1      ind_disjunction_3_disjunct_2
 BV BND1      ind_disjunction_4_disjunct_2
 BV BND1      ind_disjunction_5_disjunct_2
 BV BND1      ind_disjunction_6_disjunct_2
 BV BND1      ind_disjunction_7_disjunct_2
 BV BND1      ind_disjunction_8_disjunct_2
 BV BND1      ind_disjunction_9_disjunct_2
 BV BND1      ind_disjunction_10_disjunct_2
 BV BND1      ind_disjunction_11_disjunct_2
 BV BND1      ind_disjunction_12_disjunct_2
 BV BND1      ind_disjunction_13_disjunct_2
 BV BND1      ind_disjunction_14_disjunct_2
 BV BND1      ind_disjunction_15_disjunct_2
 BV BND1      ind_disjunction_16_disjunct_2
 BV BND1      ind_disjunction_17_disjunct_2
 BV BND1      ind_disjunction_18_disjunct_2
 BV BND1      ind_disjunction_19_disjunct_2
 BV BND1      ind_disjunction_20_disjunct_2
 BV BND1      ind_disjunction_21_disjunct_2
 BV BND1      ind_disjunction_22_disjunct_2
 BV BND1      ind_disjunction_23_disjunct_2
 BV BND1      ind_disjunction_24_disjunct_2
 BV BND1      ind_disjunction_25_disjunct_2
 BV BND1      ind_disjunction_26_disjunct_2
 BV BND1      x[1,1]  
 BV BND1      x[21,1] 
 BV BND1      x[2,2]  
 BV BND1      x[16,2] 
 BV BND1      x[3,3]  
 BV BND1      x[6,3]  
 BV BND1      x[4,4]  
 BV BND1      x[19,4] 
 BV BND1      x[5,5]  
 BV BND1      x[20,5] 
 BV BND1      x[6,6]  
 BV BND1      x[3,6]  
 BV BND1      x[7,7]  
 BV BND1      x[14,7] 
 BV BND1      x[8,8]  
 BV BND1      x[6,8]  
 BV BND1      x[9,9]  
 BV BND1      x[5,9]  
 BV BND1      x[10,10]
 BV BND1      x[16,10]
 BV BND1      x[11,11]
 BV BND1      x[26,11]
 BV BND1      x[12,12]
 BV BND1      x[19,12]
 BV BND1      x[13,13]
 BV BND1      x[23,13]
 BV BND1      x[14,14]
 BV BND1      x[7,14] 
 BV BND1      x[15,15]
 BV BND1      x[22,15]
 BV BND1      x[16,16]
 BV BND1      x[2,16] 
 BV BND1      x[17,17]
 BV BND1      x[15,17]
 BV BND1      x[18,18]
 BV BND1      x[23,18]
 BV BND1      x[19,19]
 BV BND1      x[26,19]
 BV BND1      x[20,20]
 BV BND1      x[5,20] 
 BV BND1      x[21,21]
 BV BND1      x[1,21] 
 BV BND1      x[22,22]
 BV BND1      x[15,22]
 BV BND1      x[23,23]
 BV BND1      x[13,23]
 BV BND1      x[24,24]
 BV BND1      x[17,24]
 BV BND1      x[25,25]
 BV BND1      x[24,25]
 BV BND1      x[26,26]
 BV BND1      x[19,26]
ENDATA
